NAME : n60w80.004.566.tour
COMMENT : Length = 566
COMMENT : Found by LKH [Keld Helsgaun] Tue May  2 05:18:28 2017
TYPE : TOUR
DIMENSION : 61
TOUR_SECTION
1
13
48
16
29
43
31
2
55
21
33
45
36
60
40
18
51
28
7
14
15
57
54
25
38
12
20
42
50
56
59
27
10
37
52
35
44
49
39
41
6
46
4
8
23
32
19
53
34
3
17
5
24
9
22
26
47
58
30
61
11
-1
EOF
